PatchBench/qemu/CWE-369-Divide-By-Zero/CVE_2014_0142_9302e863aa8baa5d932fc078967050c055fa1a7f/Resultparallels_open_SnippetEQ.smt2
; benchmark generated from python API
(set-info :status unknown)
(declare-fun R () (_ BitVec 32))
(declare-fun rdi () (_ BitVec 64))
(assert
 (let (($x54 (= (_ bv0 32) R)))
 (let ((?x6 ((_ extract 31 0) rdi)))
 (let (($x59 (and (distinct (_ bv0 32) ?x6) true)))
 (let (($x68 (bvule ?x6 (_ bv4186127 32))))
 (let (($x67 (and $x68 $x59 $x54)))
 (let (($x62 (= (_ bv4294967274 32) R)))
 (let (($x52 (= (_ bv0 32) ?x6)))
 (let (($x65 (and $x68 $x52 $x62)))
 (let (($x58 (= (_ bv4294967269 32) R)))
 (let (($x168 (bvugt ?x6 (_ bv4186127 32))))
 (let (($x66 (and $x168 $x59 $x58)))
 (let (($x64 (or $x66 $x65 $x67)))
 (let (($x11 (bvsge (_ bv4186127 32) ?x6)))
 (let (($x172 (and $x11 $x54)))
 (let (($x41 (bvslt (_ bv4186127 32) ?x6)))
 (let (($x50 (and $x41 $x58)))
 (let (($x175 (or $x50 $x172)))
 (and $x175 $x64)))))))))))))))))))
(check-sat)
